% Generated by MiniZinc 2.9.3
% Solver library: /home/icwmmarijnisse/Pumpkin/minizinc/lib
% Command line invocation: minizinc --compile --fzn ./instance.fzn --ozn ./instance.ozn --solver pumpkin ../../../../benchmarks/models/tsp/instances/tsp.mzn ../../../../benchmarks/models/tsp/instances/TSP_N10_3.dzn 

predicate pumpkin_circuit(array [int] of var int: x);
array [1..10] of int: X_INTRODUCED_28_ = [0,395,391,611,480,542,258,995,567,882];
array [1..10] of int: X_INTRODUCED_30_ = [395,0,966,12,697,739,118,699,907,550];
array [1..10] of int: X_INTRODUCED_32_ = [391,966,0,769,274,788,657,349,115,301];
array [1..10] of int: X_INTRODUCED_34_ = [611,12,769,0,446,162,465,4,977,740];
array [1..10] of int: X_INTRODUCED_36_ = [480,697,274,446,0,897,737,270,996,513];
array [1..10] of int: X_INTRODUCED_38_ = [542,739,788,162,897,0,781,183,520,935];
array [1..10] of int: X_INTRODUCED_40_ = [258,118,657,465,737,781,0,109,892,641];
array [1..10] of int: X_INTRODUCED_42_ = [995,699,349,4,270,183,109,0,306,862];
array [1..10] of int: X_INTRODUCED_44_ = [567,907,115,977,996,520,892,306,0,655];
array [1..10] of int: X_INTRODUCED_46_ = [882,550,301,740,513,935,641,862,655,0];
array [1..11] of int: X_INTRODUCED_50_ = [1,-1,-1,-1,-1,-1,-1,-1,-1,-1,-1];
var 1..10: X_INTRODUCED_16_;
var 1..10: X_INTRODUCED_17_;
var 1..10: X_INTRODUCED_18_;
var 1..10: X_INTRODUCED_19_;
var 1..10: X_INTRODUCED_20_;
var 1..10: X_INTRODUCED_21_;
var 1..10: X_INTRODUCED_22_;
var 1..10: X_INTRODUCED_23_;
var 1..10: X_INTRODUCED_24_;
var 1..10: X_INTRODUCED_25_;
var 0..9653: Objective:: output_var:: is_defined_var;
var 0..995: X_INTRODUCED_29_ ::var_is_introduced :: is_defined_var;
var 0..966: X_INTRODUCED_31_ ::var_is_introduced :: is_defined_var;
var 0..966: X_INTRODUCED_33_ ::var_is_introduced :: is_defined_var;
var 0..977: X_INTRODUCED_35_ ::var_is_introduced :: is_defined_var;
var 0..996: X_INTRODUCED_37_ ::var_is_introduced :: is_defined_var;
var 0..935: X_INTRODUCED_39_ ::var_is_introduced :: is_defined_var;
var 0..892: X_INTRODUCED_41_ ::var_is_introduced :: is_defined_var;
var 0..995: X_INTRODUCED_43_ ::var_is_introduced :: is_defined_var;
var 0..996: X_INTRODUCED_45_ ::var_is_introduced :: is_defined_var;
var 0..935: X_INTRODUCED_47_ ::var_is_introduced :: is_defined_var;
array [1..10] of var int: Successor:: output_array([1..10]) = [X_INTRODUCED_16_,X_INTRODUCED_17_,X_INTRODUCED_18_,X_INTRODUCED_19_,X_INTRODUCED_20_,X_INTRODUCED_21_,X_INTRODUCED_22_,X_INTRODUCED_23_,X_INTRODUCED_24_,X_INTRODUCED_25_];
array [1..11] of var int: X_INTRODUCED_49_ ::var_is_introduced  = [Objective,X_INTRODUCED_29_,X_INTRODUCED_31_,X_INTRODUCED_33_,X_INTRODUCED_35_,X_INTRODUCED_37_,X_INTRODUCED_39_,X_INTRODUCED_41_,X_INTRODUCED_43_,X_INTRODUCED_45_,X_INTRODUCED_47_];
constraint pumpkin_circuit(Successor);
constraint array_int_element(X_INTRODUCED_16_,X_INTRODUCED_28_,X_INTRODUCED_29_):: defines_var(X_INTRODUCED_29_);
constraint array_int_element(X_INTRODUCED_17_,X_INTRODUCED_30_,X_INTRODUCED_31_):: defines_var(X_INTRODUCED_31_);
constraint array_int_element(X_INTRODUCED_18_,X_INTRODUCED_32_,X_INTRODUCED_33_):: defines_var(X_INTRODUCED_33_);
constraint array_int_element(X_INTRODUCED_19_,X_INTRODUCED_34_,X_INTRODUCED_35_):: defines_var(X_INTRODUCED_35_);
constraint array_int_element(X_INTRODUCED_20_,X_INTRODUCED_36_,X_INTRODUCED_37_):: defines_var(X_INTRODUCED_37_);
constraint array_int_element(X_INTRODUCED_21_,X_INTRODUCED_38_,X_INTRODUCED_39_):: defines_var(X_INTRODUCED_39_);
constraint array_int_element(X_INTRODUCED_22_,X_INTRODUCED_40_,X_INTRODUCED_41_):: defines_var(X_INTRODUCED_41_);
constraint array_int_element(X_INTRODUCED_23_,X_INTRODUCED_42_,X_INTRODUCED_43_):: defines_var(X_INTRODUCED_43_);
constraint array_int_element(X_INTRODUCED_24_,X_INTRODUCED_44_,X_INTRODUCED_45_):: defines_var(X_INTRODUCED_45_);
constraint array_int_element(X_INTRODUCED_25_,X_INTRODUCED_46_,X_INTRODUCED_47_):: defines_var(X_INTRODUCED_47_);
constraint int_lin_eq(X_INTRODUCED_50_,X_INTRODUCED_49_,0):: defines_var(Objective);
solve  minimize Objective;
